[2026-03-23T16:02:24.265Z] Pipeline "set_exp_3_exp_3_n025_c003_g001" → 2026_03_23_16_02_24_set_exp_3_exp_3_n025_c003_g001_max.sol
Set parameter WLSAccessID
Set parameter WLSSecret
Set parameter LicenseID to value 2792458
Set parameter LogFile to value "gurobi.log"
Using license file /root/gurobi.lic
Academic license 2792458 - for non-commercial use only - registered to an___@studenti.unipg.it

Gurobi Optimizer version 13.0.1 build v13.0.1rc0 (linux64 - "Ubuntu 24.04.4 LTS")
Copyright (c) 2026, Gurobi Optimization, LLC

Warning: Duplicate section found (read 'binary') - Is a variable name equal to an LP file format keyword?
Warning: Duplicate section found (read 'binary') - Is a variable name equal to an LP file format keyword?
Warning: Duplicate section found (read 'binary') - Is a variable name equal to an LP file format keyword?
Warning: Duplicate section found (read 'binary') - Is a variable name equal to an LP file format keyword?
Warning: Duplicate section found (read 'binary') - Is a variable name equal to an LP file format keyword?
Warning: Duplicate section found (read 'binary') - Is a variable name equal to an LP file format keyword?
Warning: Duplicate section found (read 'binary') - Is a variable name equal to an LP file format keyword?
Warning: Duplicate section found (read 'binary') - Is a variable name equal to an LP file format keyword?
Warning: Duplicate section found (read 'binary') - Is a variable name equal to an LP file format keyword?
Warning: Duplicate section found (read 'binary') - Is a variable name equal to an LP file format keyword?
Warning: Further warnings of this type will be omitted.
Read LP format model from file /root/bgw/data/uploads/2026_03_23_16_02_24_set_exp_3_exp_3_n025_c003_g001_max.lp
Reading time = 0.01 seconds
: 5440 rows, 488 columns, 16072 nonzeros

Using Gurobi shared library /opt/gurobi1301/linux64/lib/libgurobi.so.13.0.1

CPU model: AMD EPYC-Genoa Processor, instruction set [SSE2|AVX|AVX2|AVX512]
Thread count: 16 physical cores, 16 logical processors, using up to 16 threads

Academic license 2792458 - for non-commercial use only - registered to an___@studenti.unipg.it
Optimize a model with 5440 rows, 488 columns and 16072 nonzeros (Max)
Model fingerprint: 0x1d83f094
Model has 7 linear objective coefficients
Variable types: 32 continuous, 456 integer (456 binary)
Coefficient statistics:
  Matrix range     [1e+00, 3e+01]
  Objective range  [1e+00, 1e+00]
  Bounds range     [1e+00, 1e+00]
  RHS range        [1e+00, 3e+01]

Found heuristic solution: objective 7.0000000
Presolve removed 810 rows and 169 columns
Presolve time: 0.03s
Presolved: 4630 rows, 319 columns, 14066 nonzeros
Variable types: 0 continuous, 319 integer (311 binary)
Found heuristic solution: objective 13.0000000

Root relaxation: objective 3.100000e+01, 105 iterations, 0.01 seconds (0.01 work units)

    Nodes    |    Current Node    |     Objective Bounds      |     Work
 Expl Unexpl |  Obj  Depth IntInf | Incumbent    BestBd   Gap | It/Node Time

     0     0   31.00000    0   17   13.00000   31.00000   138%     -    0s
H    0     0                      17.0000000   31.00000  82.4%     -    0s
H    0     0                      19.0000000   31.00000  63.2%     -    0s
H    0     0                      20.0000000   31.00000  55.0%     -    0s
     0     0   31.00000    0   20   20.00000   31.00000  55.0%     -    0s
     0     0   31.00000    0   20   20.00000   31.00000  55.0%     -    0s
     0     0   31.00000    0   20   20.00000   31.00000  55.0%     -    0s
     0     0   30.00000    0   21   20.00000   30.00000  50.0%     -    0s
     0     0   30.00000    0   20   20.00000   30.00000  50.0%     -    0s
     0     0   30.00000    0   19   20.00000   30.00000  50.0%     -    0s
     0     0   29.00000    0   13   20.00000   29.00000  45.0%     -    0s
     0     0   29.00000    0   13   20.00000   29.00000  45.0%     -    0s
     0     0   29.00000    0   13   20.00000   29.00000  45.0%     -    0s
     0     0   29.00000    0   12   20.00000   29.00000  45.0%     -    0s
     0     0   29.00000    0   27   20.00000   29.00000  45.0%     -    0s
     0     0   29.00000    0   17   20.00000   29.00000  45.0%     -    0s
     0     0   29.00000    0   18   20.00000   29.00000  45.0%     -    0s
     0     0   29.00000    0   18   20.00000   29.00000  45.0%     -    0s
     0     0   29.00000    0   17   20.00000   29.00000  45.0%     -    0s
     0     0   29.00000    0   17   20.00000   29.00000  45.0%     -    0s
     0     0   29.00000    0   17   20.00000   29.00000  45.0%     -    0s
     0     0   29.00000    0   17   20.00000   29.00000  45.0%     -    0s
     0     0   29.00000    0   17   20.00000   29.00000  45.0%     -    0s
     0     2   29.00000    0   17   20.00000   29.00000  45.0%     -    0s

Cutting planes:
  Gomory: 2
  Lift-and-project: 5
  Cover: 3
  MIR: 4
  StrongCG: 1
  Inf proof: 9
  Zero half: 3
  Mod-K: 1

Explored 398 nodes (27529 simplex iterations) in 0.64 seconds (0.69 work units)
Thread count was 16 (of 16 available processors)

Solution count 5: 20 19 17 ... 7

Optimal solution found (tolerance 1.00e-04)
Best objective 2.000000000000e+01, best bound 2.000000000000e+01, gap 0.0000%

Wrote result file '/root/bgw/data/results/2026_03_23_16_02_24_set_exp_3_exp_3_n025_c003_g001_max.sol'

